55 80
9 6 2
4 3 1
5 9 3
2 10 3
7 5 2
5 6 3
6 9 2
1 3 1
10 4 2
7 8 2
5 4 2
10 5 1
9 2 1
10 10 1
6 10 1
2 2 3
6 2 1
5 7 1
3 9 1
9 5 2
9 8 1
10 2 1
7 7 2
3 4 2
8 10 2
5 3 1
8 6 2
6 4 1
3 6 3
2 4 1
9 7 1
2 7 2
6 6 1
3 10 1
6 5 1
3 1 1
1 10 2
5 2 1
8 7 1
1 8 1
9 9 1
8 3 2
7 9 1
8 4 1
1 7 1
10 7 2
6 1 1
1 6 1
4 1 1
8 5 1
7 1 1
5 5 1
4 6 1
5 8 1
10 6 1
30 30 
30 30 
30 30 
30 30 
30 30 
30 30 
30 30 
30 30 
30 30 
30 30 
30 30 
30 30 
30 30 
30 30 
30 30 
30 30 
30 30 
30 30 
30 30 
30 30 
30 30 
30 30 
30 30 
30 30 
30 30 
30 30 
30 30 
30 30 
30 30 
30 30 
30 30 
30 30 
30 30 
30 30 
30 30 
30 30 
30 30 
30 30 
30 30 
30 30 
30 30 
30 30 
30 30 
30 30 
30 30 
30 30 
30 30 
30 30 
30 30 
30 30 
30 30 
30 30 
30 30 
30 30 
30 30 
30 30 
30 30 
30 30 
30 30 
30 30 
30 30 
30 30 
30 30 
30 30 
30 30 
30 30 
30 30 
30 30 
30 30 
30 30 
30 30 
30 30 
30 30 
30 30 
30 30 
30 30 
30 30 
30 30 
30 30 
30 30 
